; benchmark generated from python API
(set-info :status unknown)
(declare-fun z__0 () Int)
(declare-fun z__1 () Int)
(declare-fun z__2 () Int)
(declare-fun z__3 () Int)
(declare-fun z__4 () Int)
(declare-fun z__5 () Int)
(declare-fun z__6 () Int)
(declare-fun z__7 () Int)
(declare-fun z__8 () Int)
(declare-fun z__9 () Int)
(declare-fun z__10 () Int)
(declare-fun z__11 () Int)
(declare-fun z__12 () Int)
(declare-fun z__13 () Int)
(declare-fun z__14 () Int)
(declare-fun z__15 () Int)
(declare-fun z__16 () Int)
(declare-fun z__17 () Int)
(declare-fun z__18 () Int)
(declare-fun z__19 () Int)
(declare-fun z__20 () Int)
(declare-fun z__21 () Int)
(declare-fun z__22 () Int)
(declare-fun z__23 () Int)
(declare-fun z__24 () Int)
(declare-fun z__25 () Int)
(declare-fun z__26 () Int)
(declare-fun z__27 () Int)
(declare-fun z__28 () Int)
(declare-fun z__29 () Int)
(assert
 (>= z__0 0))
(assert
 (>= z__1 0))
(assert
 (>= z__2 0))
(assert
 (>= z__3 0))
(assert
 (>= z__4 0))
(assert
 (>= z__5 0))
(assert
 (>= z__6 0))
(assert
 (>= z__7 0))
(assert
 (>= z__8 0))
(assert
 (>= z__9 0))
(assert
 (>= z__10 0))
(assert
 (>= z__11 0))
(assert
 (>= z__12 0))
(assert
 (>= z__13 0))
(assert
 (>= z__14 0))
(assert
 (>= z__15 0))
(assert
 (>= z__16 0))
(assert
 (>= z__17 0))
(assert
 (>= z__18 0))
(assert
 (>= z__19 0))
(assert
 (>= z__20 0))
(assert
 (>= z__21 0))
(assert
 (>= z__22 0))
(assert
 (>= z__23 0))
(assert
 (>= z__24 0))
(assert
 (>= z__25 0))
(assert
 (>= z__26 0))
(assert
 (>= z__27 0))
(assert
 (>= z__28 0))
(assert
 (>= z__29 0))
(assert
 (or and))
(assert
 (let ((?x131 (- z__0 z__16)))
 (let (($x389 (< ?x131 1)))
 (let (($x959 (< (- z__0 z__15) (- 1))))
 (let (($x871 (< (- z__0 z__11) 2)))
 (let (($x214 (< (- z__0 z__6) 0)))
 (let ((?x147 (- z__0 z__4)))
 (let (($x775 (< ?x147 2)))
 (let (($x524 (< (- z__0 z__3) (- 3))))
 (let (($x525 (< (- z__0 z__1) (- 5))))
 (let (($x119 (< (- z__2 z__28) 4)))
 (let (($x850 (< (- z__2 z__21) 2)))
 (let (($x361 (< (- z__2 z__11) (- 1))))
 (let (($x986 (< (- z__2 z__9) 3)))
 (let (($x972 (< (- z__2 z__0) 6)))
 (let (($x104 (and $x972 $x986 $x361 $x850 $x119 $x525 $x524 $x775 $x214 $x871 $x959 $x389)))
 (or $x104)))))))))))))))))
(assert
 (let ((?x131 (- z__0 z__16)))
 (let (($x389 (< ?x131 1)))
 (let (($x959 (< (- z__0 z__15) (- 1))))
 (let (($x871 (< (- z__0 z__11) 2)))
 (let (($x214 (< (- z__0 z__6) 0)))
 (let ((?x147 (- z__0 z__4)))
 (let (($x775 (< ?x147 2)))
 (let (($x524 (< (- z__0 z__3) (- 3))))
 (let (($x525 (< (- z__0 z__1) (- 5))))
 (let (($x300 (and $x525 $x524 $x775 $x214 $x871 $x959 $x389)))
 (or $x300))))))))))))
(assert
 (let ((?x172 (- z__0 z__23)))
 (let (($x179 (< ?x172 3)))
 (let (($x997 (< (- z__0 z__21) 2)))
 (let ((?x131 (- z__0 z__16)))
 (let (($x140 (< ?x131 (- 1))))
 (let ((?x1067 (- z__0 z__9)))
 (let (($x599 (< ?x1067 2)))
 (let (($x920 (< (- z__0 z__7) 3)))
 (let ((?x147 (- z__0 z__4)))
 (let (($x998 (< ?x147 (- 1))))
 (let ((?x844 (- z__29 z__26)))
 (let (($x806 (< ?x844 (- 1))))
 (let ((?x1065 (- z__29 z__7)))
 (let (($x27 (< ?x1065 1)))
 (let (($x458 (< (- z__29 z__6) 2)))
 (let (($x497 (< (- z__29 z__4) 6)))
 (let ((?x982 (- z__29 z__2)))
 (let (($x1006 (< ?x982 5)))
 (let ((?x927 (- z__16 z__24)))
 (let (($x928 (< ?x927 7)))
 (let (($x924 (< (- z__16 z__21) 1)))
 (let (($x981 (< (- z__16 z__14) 4)))
 (let (($x153 (< (- z__16 z__4) 5)))
 (let (($x882 (< (- z__16 z__3) 0)))
 (let (($x1118 (< (- z__26 z__28) 2)))
 (let (($x948 (< (- z__26 z__22) 4)))
 (let (($x114 (< (- z__26 z__14) 6)))
 (let (($x842 (< (- z__26 z__2) 0)))
 (let (($x861 (and $x842 $x114 $x948 $x1118 $x882 $x153 $x981 $x924 $x928 $x1006 $x497 $x458 $x27 $x806 $x998 $x920 $x599 $x140 $x997 $x179)))
 (or $x861)))))))))))))))))))))))))))))))
(assert
 (let ((?x172 (- z__0 z__23)))
 (let (($x179 (< ?x172 3)))
 (let (($x997 (< (- z__0 z__21) 2)))
 (let ((?x131 (- z__0 z__16)))
 (let (($x140 (< ?x131 (- 1))))
 (let ((?x1067 (- z__0 z__9)))
 (let (($x599 (< ?x1067 2)))
 (let (($x920 (< (- z__0 z__7) 3)))
 (let ((?x147 (- z__0 z__4)))
 (let (($x998 (< ?x147 (- 1))))
 (let ((?x844 (- z__29 z__26)))
 (let (($x374 (< ?x844 5)))
 (let (($x10 (< (- z__29 z__22) (- 1))))
 (let (($x373 (< (- z__29 z__16) 6)))
 (let (($x7 (< (- z__29 z__14) 1)))
 (let ((?x1065 (- z__29 z__7)))
 (let (($x371 (< ?x1065 0)))
 (let (($x1163 (< (- z__29 z__5) 2)))
 (let ((?x982 (- z__29 z__2)))
 (let (($x682 (< ?x982 6)))
 (let ((?x1099 (- z__29 z__0)))
 (let (($x683 (< ?x1099 5)))
 (let (($x173 (and $x683 $x682 $x1163 $x371 $x7 $x373 $x10 $x374 $x998 $x920 $x599 $x140 $x997 $x179)))
 (or $x173)))))))))))))))))))))))))
(assert
 (let ((?x172 (- z__0 z__23)))
 (let (($x179 (< ?x172 3)))
 (let (($x997 (< (- z__0 z__21) 2)))
 (let ((?x131 (- z__0 z__16)))
 (let (($x140 (< ?x131 (- 1))))
 (let ((?x1067 (- z__0 z__9)))
 (let (($x599 (< ?x1067 2)))
 (let (($x920 (< (- z__0 z__7) 3)))
 (let ((?x147 (- z__0 z__4)))
 (let (($x998 (< ?x147 (- 1))))
 (let ((?x844 (- z__29 z__26)))
 (let (($x374 (< ?x844 5)))
 (let (($x10 (< (- z__29 z__22) (- 1))))
 (let (($x373 (< (- z__29 z__16) 6)))
 (let (($x7 (< (- z__29 z__14) 1)))
 (let ((?x1065 (- z__29 z__7)))
 (let (($x371 (< ?x1065 0)))
 (let (($x1163 (< (- z__29 z__5) 2)))
 (let ((?x982 (- z__29 z__2)))
 (let (($x682 (< ?x982 6)))
 (let ((?x1099 (- z__29 z__0)))
 (let (($x683 (< ?x1099 5)))
 (let ((?x856 (- z__4 z__20)))
 (let (($x1143 (< ?x856 (- 1))))
 (let (($x1169 (< (- z__4 z__7) 4)))
 (let (($x209 (and $x1169 $x1143 $x683 $x682 $x1163 $x371 $x7 $x373 $x10 $x374 $x998 $x920 $x599 $x140 $x997 $x179)))
 (or $x209))))))))))))))))))))))))))))
(assert
 (let ((?x172 (- z__0 z__23)))
 (let (($x179 (< ?x172 3)))
 (let (($x997 (< (- z__0 z__21) 2)))
 (let ((?x131 (- z__0 z__16)))
 (let (($x140 (< ?x131 (- 1))))
 (let ((?x1067 (- z__0 z__9)))
 (let (($x599 (< ?x1067 2)))
 (let (($x920 (< (- z__0 z__7) 3)))
 (let ((?x147 (- z__0 z__4)))
 (let (($x998 (< ?x147 (- 1))))
 (let ((?x844 (- z__29 z__26)))
 (let (($x806 (< ?x844 (- 1))))
 (let ((?x1065 (- z__29 z__7)))
 (let (($x27 (< ?x1065 1)))
 (let (($x458 (< (- z__29 z__6) 2)))
 (let (($x497 (< (- z__29 z__4) 6)))
 (let ((?x982 (- z__29 z__2)))
 (let (($x1006 (< ?x982 5)))
 (let ((?x927 (- z__16 z__24)))
 (let (($x111 (< ?x927 4)))
 (let (($x367 (< (- z__16 z__22) (- 1))))
 (let (($x513 (< (- z__16 z__13) 4)))
 (let (($x307 (< (- z__16 z__12) (- 2))))
 (let (($x204 (< (- z__16 z__2) 1)))
 (let (($x747 (and $x204 $x307 $x513 $x367 $x111 $x1006 $x497 $x458 $x27 $x806 $x998 $x920 $x599 $x140 $x997 $x179)))
 (or $x747)))))))))))))))))))))))))))
(assert
 (let ((?x172 (- z__0 z__23)))
 (let (($x179 (< ?x172 3)))
 (let (($x997 (< (- z__0 z__21) 2)))
 (let ((?x131 (- z__0 z__16)))
 (let (($x140 (< ?x131 (- 1))))
 (let ((?x1067 (- z__0 z__9)))
 (let (($x599 (< ?x1067 2)))
 (let (($x920 (< (- z__0 z__7) 3)))
 (let ((?x147 (- z__0 z__4)))
 (let (($x998 (< ?x147 (- 1))))
 (let ((?x844 (- z__29 z__26)))
 (let (($x374 (< ?x844 5)))
 (let (($x10 (< (- z__29 z__22) (- 1))))
 (let (($x373 (< (- z__29 z__16) 6)))
 (let (($x7 (< (- z__29 z__14) 1)))
 (let ((?x1065 (- z__29 z__7)))
 (let (($x371 (< ?x1065 0)))
 (let (($x1163 (< (- z__29 z__5) 2)))
 (let ((?x982 (- z__29 z__2)))
 (let (($x682 (< ?x982 6)))
 (let ((?x1099 (- z__29 z__0)))
 (let (($x683 (< ?x1099 5)))
 (let (($x273 (< (- z__4 z__29) 2)))
 (let (($x841 (< (- z__4 z__27) 1)))
 (let (($x741 (< (- z__4 z__16) 0)))
 (let (($x921 (< (- z__4 z__8) 3)))
 (let (($x494 (< (- z__4 z__5) 6)))
 (let (($x681 (and $x494 $x921 $x741 $x841 $x273 $x683 $x682 $x1163 $x371 $x7 $x373 $x10 $x374 $x998 $x920 $x599 $x140 $x997 $x179)))
 (or $x681))))))))))))))))))))))))))))))
(assert
 (let ((?x131 (- z__0 z__16)))
 (let (($x389 (< ?x131 1)))
 (let (($x959 (< (- z__0 z__15) (- 1))))
 (let (($x871 (< (- z__0 z__11) 2)))
 (let (($x214 (< (- z__0 z__6) 0)))
 (let ((?x147 (- z__0 z__4)))
 (let (($x775 (< ?x147 2)))
 (let (($x524 (< (- z__0 z__3) (- 3))))
 (let (($x525 (< (- z__0 z__1) (- 5))))
 (let (($x119 (< (- z__2 z__28) 4)))
 (let (($x850 (< (- z__2 z__21) 2)))
 (let (($x361 (< (- z__2 z__11) (- 1))))
 (let (($x986 (< (- z__2 z__9) 3)))
 (let (($x972 (< (- z__2 z__0) 6)))
 (let (($x756 (< (- z__1 z__25) 0)))
 (let (($x984 (< (- z__1 z__23) 6)))
 (let (($x176 (< (- z__1 z__20) 4)))
 (let (($x249 (< (- z__1 z__13) 5)))
 (let (($x633 (< (- z__1 z__8) (- 1))))
 (let (($x1116 (< (- z__1 z__2) 6)))
 (let (($x323 (< (- z__11 z__25) 5)))
 (let (($x408 (< (- z__11 z__23) 2)))
 (let (($x368 (< (- z__11 z__20) 3)))
 (let (($x136 (< (- z__11 z__17) 5)))
 (let (($x737 (< (- z__11 z__7) 4)))
 (let (($x757 (and $x737 $x136 $x368 $x408 $x323 $x1116 $x633 $x249 $x176 $x984 $x756 $x972 $x986 $x361 $x850 $x119 $x525 $x524 $x775 $x214 $x871 $x959 $x389)))
 (or $x757))))))))))))))))))))))))))))
(assert
 (let ((?x172 (- z__0 z__23)))
 (let (($x179 (< ?x172 3)))
 (let (($x997 (< (- z__0 z__21) 2)))
 (let ((?x131 (- z__0 z__16)))
 (let (($x140 (< ?x131 (- 1))))
 (let ((?x1067 (- z__0 z__9)))
 (let (($x599 (< ?x1067 2)))
 (let (($x920 (< (- z__0 z__7) 3)))
 (let ((?x147 (- z__0 z__4)))
 (let (($x998 (< ?x147 (- 1))))
 (let (($x941 (< (- z__29 z__25) (- 2))))
 (let (($x503 (< (- z__29 z__18) 3)))
 (let (($x418 (< (- z__29 z__12) 4)))
 (let ((?x1097 (- z__29 z__1)))
 (let (($x902 (< ?x1097 0)))
 (let (($x616 (and $x902 $x418 $x503 $x941 $x998 $x920 $x599 $x140 $x997 $x179)))
 (or $x616))))))))))))))))))
(assert
 (let (($x313 (< (- z__0 z__25) 0)))
 (let ((?x172 (- z__0 z__23)))
 (let (($x966 (< ?x172 (- 4))))
 (let (($x194 (< (- z__0 z__12) (- 4))))
 (let (($x1151 (and $x194 $x966 $x313)))
 (or $x1151)))))))
(assert
 (let ((?x131 (- z__0 z__16)))
 (let (($x389 (< ?x131 1)))
 (let (($x959 (< (- z__0 z__15) (- 1))))
 (let (($x871 (< (- z__0 z__11) 2)))
 (let (($x214 (< (- z__0 z__6) 0)))
 (let ((?x147 (- z__0 z__4)))
 (let (($x775 (< ?x147 2)))
 (let (($x524 (< (- z__0 z__3) (- 3))))
 (let (($x525 (< (- z__0 z__1) (- 5))))
 (let (($x119 (< (- z__2 z__28) 4)))
 (let (($x850 (< (- z__2 z__21) 2)))
 (let (($x361 (< (- z__2 z__11) (- 1))))
 (let (($x986 (< (- z__2 z__9) 3)))
 (let (($x972 (< (- z__2 z__0) 6)))
 (let (($x756 (< (- z__1 z__25) 0)))
 (let (($x984 (< (- z__1 z__23) 6)))
 (let (($x176 (< (- z__1 z__20) 4)))
 (let (($x249 (< (- z__1 z__13) 5)))
 (let (($x633 (< (- z__1 z__8) (- 1))))
 (let (($x1116 (< (- z__1 z__2) 6)))
 (let (($x994 (and $x1116 $x633 $x249 $x176 $x984 $x756 $x972 $x986 $x361 $x850 $x119 $x525 $x524 $x775 $x214 $x871 $x959 $x389)))
 (or $x994)))))))))))))))))))))))
(assert
 (let ((?x172 (- z__0 z__23)))
 (let (($x179 (< ?x172 3)))
 (let (($x997 (< (- z__0 z__21) 2)))
 (let ((?x131 (- z__0 z__16)))
 (let (($x140 (< ?x131 (- 1))))
 (let ((?x1067 (- z__0 z__9)))
 (let (($x599 (< ?x1067 2)))
 (let (($x920 (< (- z__0 z__7) 3)))
 (let ((?x147 (- z__0 z__4)))
 (let (($x998 (< ?x147 (- 1))))
 (let (($x827 (< (- z__0 z__0) (- 1))))
 (let (($x1170 (< (- z__29 z__29) (- 1))))
 (let ((?x844 (- z__29 z__26)))
 (let (($x806 (< ?x844 (- 1))))
 (let ((?x1065 (- z__29 z__7)))
 (let (($x27 (< ?x1065 1)))
 (let (($x458 (< (- z__29 z__6) 2)))
 (let (($x497 (< (- z__29 z__4) 6)))
 (let ((?x982 (- z__29 z__2)))
 (let (($x1006 (< ?x982 5)))
 (let ((?x927 (- z__16 z__24)))
 (let (($x111 (< ?x927 4)))
 (let (($x367 (< (- z__16 z__22) (- 1))))
 (let (($x784 (< (- z__16 z__16) (- 1))))
 (let (($x513 (< (- z__16 z__13) 4)))
 (let (($x307 (< (- z__16 z__12) (- 2))))
 (let (($x204 (< (- z__16 z__2) 1)))
 (let (($x1041 (< (- z__6 z__19) 5)))
 (let (($x561 (< (- z__6 z__15) (- 2))))
 (let (($x188 (< (- z__6 z__9) 5)))
 (let (($x716 (and $x188 $x561 $x1041 $x204 $x307 $x513 $x784 $x367 $x111 $x1006 $x497 $x458 $x27 $x806 $x1170 $x827 $x998 $x920 $x599 $x140 $x997 $x179)))
 (let (($x313 (< (- z__0 z__25) 0)))
 (let (($x966 (< ?x172 (- 4))))
 (let (($x194 (< (- z__0 z__12) (- 4))))
 (let (($x487 (and (< (- z__10 z__9) 5) (< (- z__10 z__15) (- 2)) (< (- z__10 z__19) 5) $x194 $x966 $x313)))
 (or $x487 $x716)))))))))))))))))))))))))))))))))))))
(assert
 (let ((?x172 (- z__0 z__23)))
 (let (($x179 (< ?x172 3)))
 (let (($x997 (< (- z__0 z__21) 2)))
 (let ((?x131 (- z__0 z__16)))
 (let (($x140 (< ?x131 (- 1))))
 (let ((?x1067 (- z__0 z__9)))
 (let (($x599 (< ?x1067 2)))
 (let (($x920 (< (- z__0 z__7) 3)))
 (let ((?x147 (- z__0 z__4)))
 (let (($x998 (< ?x147 (- 1))))
 (let (($x941 (< (- z__29 z__25) (- 2))))
 (let (($x503 (< (- z__29 z__18) 3)))
 (let (($x418 (< (- z__29 z__12) 4)))
 (let ((?x1097 (- z__29 z__1)))
 (let (($x902 (< ?x1097 0)))
 (let (($x877 (< (- z__9 z__24) 5)))
 (let (($x974 (< (- z__9 z__19) 3)))
 (let (($x299 (< (- z__9 z__13) (- 3))))
 (let (($x311 (< (- z__9 z__11) (- 2))))
 (let (($x934 (< (- z__9 z__10) 3)))
 (let (($x446 (< (- z__9 z__8) 3)))
 (let (($x1039 (< (- z__25 z__22) 7)))
 (let (($x1031 (< (- z__25 z__19) 0)))
 (let (($x656 (< (- z__25 z__15) 6)))
 (let (($x480 (< (- z__25 z__11) 5)))
 (let (($x1135 (< (- z__25 z__6) 7)))
 (let (($x971 (and $x1135 $x480 $x656 $x1031 $x1039 $x446 $x934 $x311 $x299 $x974 $x877 $x902 $x418 $x503 $x941 $x998 $x920 $x599 $x140 $x997 $x179)))
 (or $x971)))))))))))))))))))))))))))))
(assert
 (let ((?x172 (- z__0 z__23)))
 (let (($x179 (< ?x172 3)))
 (let (($x997 (< (- z__0 z__21) 2)))
 (let ((?x131 (- z__0 z__16)))
 (let (($x140 (< ?x131 (- 1))))
 (let ((?x1067 (- z__0 z__9)))
 (let (($x599 (< ?x1067 2)))
 (let (($x920 (< (- z__0 z__7) 3)))
 (let ((?x147 (- z__0 z__4)))
 (let (($x998 (< ?x147 (- 1))))
 (let ((?x844 (- z__29 z__26)))
 (let (($x374 (< ?x844 5)))
 (let (($x10 (< (- z__29 z__22) (- 1))))
 (let (($x373 (< (- z__29 z__16) 6)))
 (let (($x7 (< (- z__29 z__14) 1)))
 (let ((?x1065 (- z__29 z__7)))
 (let (($x371 (< ?x1065 0)))
 (let (($x1163 (< (- z__29 z__5) 2)))
 (let ((?x982 (- z__29 z__2)))
 (let (($x682 (< ?x982 6)))
 (let ((?x1099 (- z__29 z__0)))
 (let (($x683 (< ?x1099 5)))
 (let (($x946 (< (- z__4 z__28) (- 3))))
 (let (($x312 (< (- z__4 z__26) 2)))
 (let (($x1046 (< (- z__4 z__24) (- 1))))
 (let (($x1082 (< (- z__4 z__22) 3)))
 (let ((?x856 (- z__4 z__20)))
 (let (($x268 (< ?x856 4)))
 (let (($x33 (< (- z__4 z__3) 5)))
 (let (($x832 (and $x33 $x268 $x1082 $x1046 $x312 $x946 $x683 $x682 $x1163 $x371 $x7 $x373 $x10 $x374 $x998 $x920 $x599 $x140 $x997 $x179)))
 (or $x832))))))))))))))))))))))))))))))))
(assert
 (let ((?x131 (- z__0 z__16)))
 (let (($x389 (< ?x131 1)))
 (let (($x959 (< (- z__0 z__15) (- 1))))
 (let (($x871 (< (- z__0 z__11) 2)))
 (let (($x214 (< (- z__0 z__6) 0)))
 (let ((?x147 (- z__0 z__4)))
 (let (($x775 (< ?x147 2)))
 (let (($x524 (< (- z__0 z__3) (- 3))))
 (let (($x525 (< (- z__0 z__1) (- 5))))
 (let (($x827 (< (- z__0 z__0) (- 1))))
 (let (($x1073 (< (- z__2 z__13) 2)))
 (let (($x495 (< (- z__2 z__12) (- 4))))
 (let (($x1114 (and $x495 $x1073 $x827 $x525 $x524 $x775 $x214 $x871 $x959 $x389)))
 (let ((?x172 (- z__0 z__23)))
 (let (($x179 (< ?x172 3)))
 (let (($x997 (< (- z__0 z__21) 2)))
 (let (($x140 (< ?x131 (- 1))))
 (let ((?x1067 (- z__0 z__9)))
 (let (($x599 (< ?x1067 2)))
 (let (($x920 (< (- z__0 z__7) 3)))
 (let (($x998 (< ?x147 (- 1))))
 (let ((?x844 (- z__29 z__26)))
 (let (($x374 (< ?x844 5)))
 (let (($x10 (< (- z__29 z__22) (- 1))))
 (let (($x373 (< (- z__29 z__16) 6)))
 (let (($x7 (< (- z__29 z__14) 1)))
 (let ((?x1065 (- z__29 z__7)))
 (let (($x371 (< ?x1065 0)))
 (let (($x1163 (< (- z__29 z__5) 2)))
 (let ((?x982 (- z__29 z__2)))
 (let (($x682 (< ?x982 6)))
 (let ((?x1099 (- z__29 z__0)))
 (let (($x683 (< ?x1099 5)))
 (let (($x866 (< (- z__4 z__15) 5)))
 (let (($x405 (< (- z__4 z__14) 5)))
 (let (($x279 (< (- z__4 z__13) 7)))
 (let (($x469 (< (- z__4 z__6) 2)))
 (let (($x33 (< (- z__4 z__3) 5)))
 (let (($x387 (and (< (- z__22 z__12) (- 6)) (< (- z__22 z__13) 0) $x33 $x469 $x279 $x405 $x866 $x683 $x682 $x1163 $x371 $x7 $x373 $x10 $x374 $x998 $x920 $x599 $x140 $x997 $x179)))
 (or $x387 $x1114)))))))))))))))))))))))))))))))))))))))))
(assert
 (let ((?x172 (- z__0 z__23)))
 (let (($x179 (< ?x172 3)))
 (let (($x997 (< (- z__0 z__21) 2)))
 (let ((?x131 (- z__0 z__16)))
 (let (($x140 (< ?x131 (- 1))))
 (let ((?x1067 (- z__0 z__9)))
 (let (($x599 (< ?x1067 2)))
 (let (($x920 (< (- z__0 z__7) 3)))
 (let ((?x147 (- z__0 z__4)))
 (let (($x998 (< ?x147 (- 1))))
 (let ((?x844 (- z__29 z__26)))
 (let (($x806 (< ?x844 (- 1))))
 (let ((?x1065 (- z__29 z__7)))
 (let (($x27 (< ?x1065 1)))
 (let (($x458 (< (- z__29 z__6) 2)))
 (let (($x497 (< (- z__29 z__4) 6)))
 (let ((?x982 (- z__29 z__2)))
 (let (($x1006 (< ?x982 5)))
 (let (($x123 (and $x1006 $x497 $x458 $x27 $x806 $x998 $x920 $x599 $x140 $x997 $x179)))
 (or $x123)))))))))))))))))))))
(assert
 (let (($x881 (< (- z__0 z__17) 1)))
 (let ((?x1067 (- z__0 z__9)))
 (let (($x332 (< ?x1067 5)))
 (let (($x778 (< (- z__18 z__8) 2)))
 (let (($x790 (and $x778 $x332 $x881)))
 (or $x790)))))))
(assert
 (let (($x881 (< (- z__0 z__17) 1)))
 (let ((?x1067 (- z__0 z__9)))
 (let (($x332 (< ?x1067 5)))
 (let (($x69 (and $x332 $x881)))
 (or $x69))))))
(assert
 (let ((?x172 (- z__0 z__23)))
 (let (($x179 (< ?x172 3)))
 (let (($x997 (< (- z__0 z__21) 2)))
 (let ((?x131 (- z__0 z__16)))
 (let (($x140 (< ?x131 (- 1))))
 (let ((?x1067 (- z__0 z__9)))
 (let (($x599 (< ?x1067 2)))
 (let (($x920 (< (- z__0 z__7) 3)))
 (let ((?x147 (- z__0 z__4)))
 (let (($x998 (< ?x147 (- 1))))
 (let (($x941 (< (- z__29 z__25) (- 2))))
 (let (($x503 (< (- z__29 z__18) 3)))
 (let (($x418 (< (- z__29 z__12) 4)))
 (let ((?x1097 (- z__29 z__1)))
 (let (($x902 (< ?x1097 0)))
 (let (($x877 (< (- z__9 z__24) 5)))
 (let (($x974 (< (- z__9 z__19) 3)))
 (let (($x299 (< (- z__9 z__13) (- 3))))
 (let (($x311 (< (- z__9 z__11) (- 2))))
 (let (($x934 (< (- z__9 z__10) 3)))
 (let (($x446 (< (- z__9 z__8) 3)))
 (let (($x1039 (< (- z__25 z__22) 7)))
 (let (($x1031 (< (- z__25 z__19) 0)))
 (let (($x656 (< (- z__25 z__15) 6)))
 (let (($x480 (< (- z__25 z__11) 5)))
 (let (($x1135 (< (- z__25 z__6) 7)))
 (let (($x1335 (< (- z__13 z__25) 4)))
 (let (($x163 (< (- z__13 z__12) 6)))
 (let (($x591 (and $x163 $x1335 $x1135 $x480 $x656 $x1031 $x1039 $x446 $x934 $x311 $x299 $x974 $x877 $x902 $x418 $x503 $x941 $x998 $x920 $x599 $x140 $x997 $x179)))
 (or $x591)))))))))))))))))))))))))))))))
(assert
 (let ((?x172 (- z__0 z__23)))
 (let (($x179 (< ?x172 3)))
 (let (($x997 (< (- z__0 z__21) 2)))
 (let ((?x131 (- z__0 z__16)))
 (let (($x140 (< ?x131 (- 1))))
 (let ((?x1067 (- z__0 z__9)))
 (let (($x599 (< ?x1067 2)))
 (let (($x920 (< (- z__0 z__7) 3)))
 (let ((?x147 (- z__0 z__4)))
 (let (($x998 (< ?x147 (- 1))))
 (let ((?x844 (- z__29 z__26)))
 (let (($x374 (< ?x844 5)))
 (let (($x10 (< (- z__29 z__22) (- 1))))
 (let (($x373 (< (- z__29 z__16) 6)))
 (let (($x7 (< (- z__29 z__14) 1)))
 (let ((?x1065 (- z__29 z__7)))
 (let (($x371 (< ?x1065 0)))
 (let (($x1163 (< (- z__29 z__5) 2)))
 (let ((?x982 (- z__29 z__2)))
 (let (($x682 (< ?x982 6)))
 (let ((?x1099 (- z__29 z__0)))
 (let (($x683 (< ?x1099 5)))
 (let ((?x856 (- z__4 z__20)))
 (let (($x1143 (< ?x856 (- 1))))
 (let (($x1169 (< (- z__4 z__7) 4)))
 (let (($x457 (< (- z__5 z__14) 3)))
 (let (($x636 (< (- z__5 z__11) 1)))
 (let (($x137 (< (- z__5 z__8) 0)))
 (let (($x386 (and $x137 $x636 $x457 $x1169 $x1143 $x683 $x682 $x1163 $x371 $x7 $x373 $x10 $x374 $x998 $x920 $x599 $x140 $x997 $x179)))
 (or $x386)))))))))))))))))))))))))))))))
(assert
 (let ((?x172 (- z__0 z__23)))
 (let (($x179 (< ?x172 3)))
 (let (($x997 (< (- z__0 z__21) 2)))
 (let ((?x131 (- z__0 z__16)))
 (let (($x140 (< ?x131 (- 1))))
 (let ((?x1067 (- z__0 z__9)))
 (let (($x599 (< ?x1067 2)))
 (let (($x920 (< (- z__0 z__7) 3)))
 (let ((?x147 (- z__0 z__4)))
 (let (($x998 (< ?x147 (- 1))))
 (let (($x680 (< (- z__29 z__28) (- 3))))
 (let (($x1113 (< (- z__29 z__27) (- 3))))
 (let ((?x844 (- z__29 z__26)))
 (let (($x1121 (< ?x844 (- 2))))
 (let ((?x1097 (- z__29 z__1)))
 (let (($x1141 (< ?x1097 (- 1))))
 (let (($x641 (and $x1141 $x1121 $x1113 $x680 $x998 $x920 $x599 $x140 $x997 $x179)))
 (or $x641)))))))))))))))))))
(assert
 (let ((?x172 (- z__0 z__23)))
 (let (($x179 (< ?x172 3)))
 (let (($x997 (< (- z__0 z__21) 2)))
 (let ((?x131 (- z__0 z__16)))
 (let (($x140 (< ?x131 (- 1))))
 (let ((?x1067 (- z__0 z__9)))
 (let (($x599 (< ?x1067 2)))
 (let (($x920 (< (- z__0 z__7) 3)))
 (let ((?x147 (- z__0 z__4)))
 (let (($x998 (< ?x147 (- 1))))
 (let ((?x844 (- z__29 z__26)))
 (let (($x374 (< ?x844 5)))
 (let (($x10 (< (- z__29 z__22) (- 1))))
 (let (($x373 (< (- z__29 z__16) 6)))
 (let (($x7 (< (- z__29 z__14) 1)))
 (let ((?x1065 (- z__29 z__7)))
 (let (($x371 (< ?x1065 0)))
 (let (($x1163 (< (- z__29 z__5) 2)))
 (let ((?x982 (- z__29 z__2)))
 (let (($x682 (< ?x982 6)))
 (let ((?x1099 (- z__29 z__0)))
 (let (($x683 (< ?x1099 5)))
 (let (($x866 (< (- z__4 z__15) 5)))
 (let (($x405 (< (- z__4 z__14) 5)))
 (let (($x279 (< (- z__4 z__13) 7)))
 (let (($x469 (< (- z__4 z__6) 2)))
 (let (($x33 (< (- z__4 z__3) 5)))
 (let (($x305 (and $x33 $x469 $x279 $x405 $x866 $x683 $x682 $x1163 $x371 $x7 $x373 $x10 $x374 $x998 $x920 $x599 $x140 $x997 $x179)))
 (or $x305))))))))))))))))))))))))))))))
(assert
 (let ((?x172 (- z__0 z__23)))
 (let (($x179 (< ?x172 3)))
 (let (($x997 (< (- z__0 z__21) 2)))
 (let ((?x131 (- z__0 z__16)))
 (let (($x140 (< ?x131 (- 1))))
 (let ((?x1067 (- z__0 z__9)))
 (let (($x599 (< ?x1067 2)))
 (let (($x920 (< (- z__0 z__7) 3)))
 (let ((?x147 (- z__0 z__4)))
 (let (($x998 (< ?x147 (- 1))))
 (let (($x403 (< (- z__29 z__11) 2)))
 (let (($x30 (< (- z__29 z__10) (- 3))))
 (let (($x671 (< (- z__29 z__8) (- 2))))
 (let ((?x1099 (- z__29 z__0)))
 (let (($x862 (< ?x1099 2)))
 (let (($x166 (and $x862 $x671 $x30 $x403 $x998 $x920 $x599 $x140 $x997 $x179)))
 (or $x166))))))))))))))))))
(assert
 (let ((?x172 (- z__0 z__23)))
 (let (($x179 (< ?x172 3)))
 (let (($x997 (< (- z__0 z__21) 2)))
 (let ((?x131 (- z__0 z__16)))
 (let (($x140 (< ?x131 (- 1))))
 (let ((?x1067 (- z__0 z__9)))
 (let (($x599 (< ?x1067 2)))
 (let (($x920 (< (- z__0 z__7) 3)))
 (let ((?x147 (- z__0 z__4)))
 (let (($x998 (< ?x147 (- 1))))
 (let ((?x844 (- z__29 z__26)))
 (let (($x374 (< ?x844 5)))
 (let (($x10 (< (- z__29 z__22) (- 1))))
 (let (($x373 (< (- z__29 z__16) 6)))
 (let (($x7 (< (- z__29 z__14) 1)))
 (let ((?x1065 (- z__29 z__7)))
 (let (($x371 (< ?x1065 0)))
 (let (($x1163 (< (- z__29 z__5) 2)))
 (let ((?x982 (- z__29 z__2)))
 (let (($x682 (< ?x982 6)))
 (let ((?x1099 (- z__29 z__0)))
 (let (($x683 (< ?x1099 5)))
 (let (($x946 (< (- z__4 z__28) (- 3))))
 (let (($x312 (< (- z__4 z__26) 2)))
 (let (($x1046 (< (- z__4 z__24) (- 1))))
 (let (($x1082 (< (- z__4 z__22) 3)))
 (let ((?x856 (- z__4 z__20)))
 (let (($x268 (< ?x856 4)))
 (let (($x33 (< (- z__4 z__3) 5)))
 (let (($x1178 (< (- z__14 z__27) 3)))
 (let (($x970 (< (- z__14 z__26) 5)))
 (let (($x259 (< (- z__14 z__25) 5)))
 (let (($x1064 (< (- z__14 z__6) 5)))
 (let (($x605 (and $x1064 $x259 $x970 $x1178 $x33 $x268 $x1082 $x1046 $x312 $x946 $x683 $x682 $x1163 $x371 $x7 $x373 $x10 $x374 $x998 $x920 $x599 $x140 $x997 $x179)))
 (or $x605))))))))))))))))))))))))))))))))))))
(assert
 (let ((?x172 (- z__0 z__23)))
 (let (($x179 (< ?x172 3)))
 (let (($x997 (< (- z__0 z__21) 2)))
 (let ((?x131 (- z__0 z__16)))
 (let (($x140 (< ?x131 (- 1))))
 (let ((?x1067 (- z__0 z__9)))
 (let (($x599 (< ?x1067 2)))
 (let (($x920 (< (- z__0 z__7) 3)))
 (let ((?x147 (- z__0 z__4)))
 (let (($x998 (< ?x147 (- 1))))
 (let (($x941 (< (- z__29 z__25) (- 2))))
 (let (($x503 (< (- z__29 z__18) 3)))
 (let (($x418 (< (- z__29 z__12) 4)))
 (let ((?x1097 (- z__29 z__1)))
 (let (($x902 (< ?x1097 0)))
 (let (($x877 (< (- z__9 z__24) 5)))
 (let (($x974 (< (- z__9 z__19) 3)))
 (let (($x299 (< (- z__9 z__13) (- 3))))
 (let (($x311 (< (- z__9 z__11) (- 2))))
 (let (($x934 (< (- z__9 z__10) 3)))
 (let (($x446 (< (- z__9 z__8) 3)))
 (let (($x993 (and $x446 $x934 $x311 $x299 $x974 $x877 $x902 $x418 $x503 $x941 $x998 $x920 $x599 $x140 $x997 $x179)))
 (or $x993))))))))))))))))))))))))
(assert
 (let ((?x172 (- z__0 z__23)))
 (let (($x179 (< ?x172 3)))
 (let (($x997 (< (- z__0 z__21) 2)))
 (let ((?x131 (- z__0 z__16)))
 (let (($x140 (< ?x131 (- 1))))
 (let ((?x1067 (- z__0 z__9)))
 (let (($x599 (< ?x1067 2)))
 (let (($x920 (< (- z__0 z__7) 3)))
 (let ((?x147 (- z__0 z__4)))
 (let (($x998 (< ?x147 (- 1))))
 (let ((?x844 (- z__29 z__26)))
 (let (($x806 (< ?x844 (- 1))))
 (let ((?x1065 (- z__29 z__7)))
 (let (($x27 (< ?x1065 1)))
 (let (($x458 (< (- z__29 z__6) 2)))
 (let (($x497 (< (- z__29 z__4) 6)))
 (let ((?x982 (- z__29 z__2)))
 (let (($x1006 (< ?x982 5)))
 (let ((?x927 (- z__16 z__24)))
 (let (($x928 (< ?x927 7)))
 (let (($x924 (< (- z__16 z__21) 1)))
 (let (($x981 (< (- z__16 z__14) 4)))
 (let (($x153 (< (- z__16 z__4) 5)))
 (let (($x882 (< (- z__16 z__3) 0)))
 (let (($x337 (and $x882 $x153 $x981 $x924 $x928 $x1006 $x497 $x458 $x27 $x806 $x998 $x920 $x599 $x140 $x997 $x179)))
 (or $x337)))))))))))))))))))))))))))
(assert
 (let ((?x172 (- z__0 z__23)))
 (let (($x179 (< ?x172 3)))
 (let (($x997 (< (- z__0 z__21) 2)))
 (let ((?x131 (- z__0 z__16)))
 (let (($x140 (< ?x131 (- 1))))
 (let ((?x1067 (- z__0 z__9)))
 (let (($x599 (< ?x1067 2)))
 (let (($x920 (< (- z__0 z__7) 3)))
 (let ((?x147 (- z__0 z__4)))
 (let (($x998 (< ?x147 (- 1))))
 (let (($x680 (< (- z__29 z__28) (- 3))))
 (let (($x1113 (< (- z__29 z__27) (- 3))))
 (let ((?x844 (- z__29 z__26)))
 (let (($x1121 (< ?x844 (- 2))))
 (let ((?x1097 (- z__29 z__1)))
 (let (($x1141 (< ?x1097 (- 1))))
 (let (($x923 (< (- z__21 z__24) 4)))
 (let (($x120 (< (- z__21 z__7) 1)))
 (let (($x201 (and $x120 $x923 $x1141 $x1121 $x1113 $x680 $x998 $x920 $x599 $x140 $x997 $x179)))
 (or $x201)))))))))))))))))))))
(assert
 (let ((?x172 (- z__0 z__23)))
 (let (($x179 (< ?x172 3)))
 (let (($x997 (< (- z__0 z__21) 2)))
 (let ((?x131 (- z__0 z__16)))
 (let (($x140 (< ?x131 (- 1))))
 (let ((?x1067 (- z__0 z__9)))
 (let (($x599 (< ?x1067 2)))
 (let (($x920 (< (- z__0 z__7) 3)))
 (let ((?x147 (- z__0 z__4)))
 (let (($x998 (< ?x147 (- 1))))
 (let ((?x844 (- z__29 z__26)))
 (let (($x374 (< ?x844 5)))
 (let (($x10 (< (- z__29 z__22) (- 1))))
 (let (($x373 (< (- z__29 z__16) 6)))
 (let (($x7 (< (- z__29 z__14) 1)))
 (let ((?x1065 (- z__29 z__7)))
 (let (($x371 (< ?x1065 0)))
 (let (($x1163 (< (- z__29 z__5) 2)))
 (let ((?x982 (- z__29 z__2)))
 (let (($x682 (< ?x982 6)))
 (let ((?x1099 (- z__29 z__0)))
 (let (($x683 (< ?x1099 5)))
 (let (($x946 (< (- z__4 z__28) (- 3))))
 (let (($x312 (< (- z__4 z__26) 2)))
 (let (($x1046 (< (- z__4 z__24) (- 1))))
 (let (($x1082 (< (- z__4 z__22) 3)))
 (let ((?x856 (- z__4 z__20)))
 (let (($x268 (< ?x856 4)))
 (let (($x33 (< (- z__4 z__3) 5)))
 (let (($x1300 (< (- z__14 z__21) 0)))
 (let (($x1382 (< (- z__14 z__3) 3)))
 (let (($x112 (< (- z__14 z__1) 4)))
 (let (($x1364 (and $x112 $x1382 $x1300 $x33 $x268 $x1082 $x1046 $x312 $x946 $x683 $x682 $x1163 $x371 $x7 $x373 $x10 $x374 $x998 $x920 $x599 $x140 $x997 $x179)))
 (or $x1364)))))))))))))))))))))))))))))))))))
(assert
 (let ((?x172 (- z__0 z__23)))
 (let (($x179 (< ?x172 3)))
 (let (($x997 (< (- z__0 z__21) 2)))
 (let ((?x131 (- z__0 z__16)))
 (let (($x140 (< ?x131 (- 1))))
 (let ((?x1067 (- z__0 z__9)))
 (let (($x599 (< ?x1067 2)))
 (let (($x920 (< (- z__0 z__7) 3)))
 (let ((?x147 (- z__0 z__4)))
 (let (($x998 (< ?x147 (- 1))))
 (let (($x1411 (and $x998 $x920 $x599 $x140 $x997 $x179)))
 (or $x1411)))))))))))))
(check-sat)
